% File represents an instance of a Composite Structure problem to be solved by a CP framework
% Created on 2025-03-26 10:41:42.209
T = 58;
n = 25;
m = 40;
edges = [(1, 2),
(6, 7),
(11, 12),
(16, 17),
(21, 22),
(3, 2),
(8, 7),
(13, 12),
(18, 17),
(22, 23),
(3, 4),
(8, 9),
(13, 14),
(18, 19),
(23, 24),
(4, 5),
(10, 9),
(15, 14),
(20, 19),
(25, 24),
(1, 6),
(11, 6),
(11, 16),
(21, 16),
(2, 7),
(12, 7),
(12, 17),
(22, 17),
(3, 8),
(13, 8),
(13, 18),
(23, 18),
(4, 9),
(14, 9),
(14, 19),
(24, 19),
(10, 5),
(15, 10),
(15, 20),
(25, 20)];
counts = [|14, 18, 14, 8,
|14, 16, 14, 4,
|14, 20, 14, 6,
|14, 20, 14, 2,
|14, 18, 14, 2,
|14, 18, 14, 6,
|14, 16, 14, 2,
|14, 18, 14, 6,
|14, 16, 14, 2,
|14, 20, 14, 2,
|14, 22, 14, 6,
|14, 16, 14, 6,
|14, 18, 14, 10,
|14, 18, 14, 4,
|14, 22, 14, 4,
|14, 20, 14, 6,
|14, 16, 14, 4,
|14, 18, 14, 4,
|14, 12, 14, 4,
|14, 18, 14, 4,
|14, 20, 14, 10,
|14, 20, 14, 6,
|14, 20, 14, 4,
|14, 18, 14, 4,
|14, 20, 14, 4|];
